1 -1 -2 0
1 -1 -3 0
1 1 4 0
1 -5 1 0
1 -5 -6 0
1 7 -8 0
1 -7 9 0
1 -7 10 0
1 -7 3 0
1 7 -11 0
1 -7 -12 0
1 -7 6 0
1 7 -4 0
1 10 13 0
1 10 -7 0
1 -10 4 0
1 -3 14 0
1 -3 -15 0
1 -3 -16 0
1 3 10 0
1 -4 17 0
1 -4 -14 0
1 -4 16 0
1 4 18 0
1 4 -7 0
1 2 -10 0
1 2 -5 0
1 2 -19 0
1 -2 -20 0
1 -2 -1 0
1 -6 14 0
1 -6 21 0
1 -6 22 0
1 6 -5 0
1 6 -2 0
1 6 23 0
1 -6 20 0
1 -6 1 0
1 -18 9 0
1 -16 13 0
1 16 4 0
1 -24 -8 0
1 24 3 0
1 -24 25 0
1 15 -26 0
1 -15 -3 0
1 15 -27 0
1 13 28 0
1 13 29 0
1 13 -16 0
1 13 10 0
1 -13 30 0
1 13 31 0
1 13 -32 0
1 13 7 0
1 -9 28 0
1 -9 -16 0
1 9 -33 0
1 9 24 0
1 -11 -14 0
1 11 -15 0
1 11 34 0
1 -11 -18 0
1 11 7 0
1 -11 -35 0
1 8 36 0
1 8 -37 0
1 8 -16 0
1 8 -18 0
1 29 -9 0
1 -29 31 0
1 29 27 0
1 -30 28 0
1 -30 -9 0
1 30 -38 0
1 -30 39 0
1 -30 13 0
1 30 27 0
1 -28 -36 0
1 28 -26 0
1 -28 -25 0
1 27 15 0
1 -27 31 0
1 -27 24 0
1 -27 40 0
1 -38 -41 0
1 38 30 0
1 -38 -42 0
1 -25 -28 0
1 25 -15 0
1 -25 43 0
1 25 44 0
1 -25 31 0
1 26 28 0
1 -26 -29 0
1 26 -15 0
1 26 43 0
1 26 -44 0
1 26 -33 0
1 26 -24 0
1 26 42 0
1 26 35 0
1 45 -46 0
1 45 47 0
1 -47 -48 0
1 47 49 0
1 12 50 0
1 51 52 0
1 -51 -46 0
1 51 -50 0
1 -51 -48 0
1 51 49 0
1 -51 53 0
1 -51 -12 0
1 -46 -21 0
1 46 -51 0
1 46 -47 0
1 -46 19 0
1 46 20 0
1 49 -47 0
1 -49 -19 0
1 49 45 0
1 52 -51 0
1 -52 12 0
1 -52 -45 0
1 48 -51 0
1 48 47 0
1 -48 12 0
1 -20 -54 0
1 -20 -49 0
1 20 -55 0
1 20 -53 0
1 -22 50 0
1 22 49 0
1 22 6 0
1 19 -53 0
1 21 54 0
1 21 56 0
1 -21 57 0
1 -21 49 0
1 21 55 0
1 21 -58 0
1 21 -6 0
1 -50 -59 0
1 -50 36 0
1 50 21 0
1 -50 -39 0
1 -50 19 0
1 -50 -20 0
1 -50 12 0
1 53 -59 0
1 53 36 0
1 53 -51 0
1 -53 -60 0
1 53 39 0
1 53 61 0
1 53 -12 0
1 54 59 0
1 -54 -51 0
1 54 55 0
1 54 12 0
1 -55 59 0
1 55 21 0
1 55 54 0
1 -55 -22 0
1 55 51 0
1 -55 -60 0
1 -55 -62 0
1 -55 -12 0
1 23 -56 0
1 -23 -58 0
1 -23 4 0
1 -14 3 0
1 -14 -23 0
1 -14 -63 0
1 -39 -8 0
1 -39 36 0
1 -39 -50 0
1 39 56 0
1 -39 -58 0
1 39 -64 0
1 36 -17 0
1 36 65 0
1 36 -39 0
1 -36 -53 0
1 -36 -64 0
1 -57 36 0
1 -57 14 0
1 57 -21 0
1 -57 -66 0
1 57 44 0
1 57 -67 0
1 -57 33 0
1 57 39 0
1 -57 -19 0
1 -57 68 0
1 -63 -21 0
1 -63 57 0
1 63 69 0
1 -63 -23 0
1 63 -70 0
1 -63 -68 0
1 -63 -35 0
1 56 71 0
1 -56 -39 0
1 -56 23 0
1 56 58 0
1 -56 70 0
1 -56 -72 0
1 -58 21 0
1 58 66 0
1 -58 73 0
1 58 23 0
1 58 -19 0
1 33 9 0
1 -33 11 0
1 -33 -13 0
1 33 -63 0
1 33 35 0
1 35 -8 0
1 35 17 0
1 -35 -26 0
1 35 -11 0
1 -35 -13 0
1 35 63 0
1 44 -26 0
1 44 57 0
1 -44 73 0
1 44 65 0
1 44 32 0
1 -44 -68 0
1 -44 64 0
1 -68 37 0
1 68 -44 0
1 68 74 0
1 -68 65 0
1 -68 -34 0
1 68 -25 0
1 -68 -63 0
1 65 43 0
1 65 -75 0
1 -65 42 0
1 -65 -35 0
1 17 -36 0
1 17 76 0
1 -17 44 0
1 17 33 0
1 17 -39 0
1 -17 4 0
1 -17 -75 0
1 -17 68 0
1 17 35 0
1 74 -36 0
1 74 -77 0
1 74 33 0
1 74 39 0
1 74 78 0
1 74 -70 0
1 74 -64 0
1 -64 44 0
1 -64 -6 0
1 64 70 0
1 -64 68 0
1 43 -17 0
1 -43 37 0
1 -43 79 0
1 -43 38 0
1 -43 -66 0
1 43 34 0
1 -43 32 0
1 -43 -25 0
1 -43 27 0
1 43 -42 0
1 42 -79 0
1 -42 26 0
1 -42 -43 0
1 -42 65 0
1 42 -34 0
1 42 -25 0
1 -42 -70 0
1 76 37 0
1 76 79 0
1 76 75 0
1 -76 -41 0
1 76 65 0
1 76 -34 0
1 -76 80 0
1 75 -41 0
1 75 76 0
1 75 -65 0
1 -75 -32 0
1 75 40 0
1 -75 81 0
1 -32 82 0
1 32 -76 0
1 -32 -44 0
1 32 83 0
1 32 84 0
1 -32 -42 0
1 -79 -9 0
1 79 76 0
1 79 44 0
1 79 -32 0
1 79 -68 0
1 -34 -77 0
1 34 -78 0
1 34 -42 0
1 34 -68 0
1 -37 -43 0
1 37 34 0
1 -85 -41 0
1 85 32 0
1 85 -84 0
1 85 -40 0
1 84 -79 0
1 -84 86 0
1 84 32 0
1 84 78 0
1 -82 86 0
1 82 -41 0
1 -82 80 0
1 83 41 0
1 -83 -32 0
1 -83 -87 0
1 40 82 0
1 -40 85 0
1 -40 83 0
1 40 -84 0
1 -40 -27 0
1 40 75 0
1 41 -82 0
1 -41 -76 0
1 41 -83 0
1 80 -84 0
1 -86 -85 0
1 -86 -75 0
1 60 -59 0
1 60 54 0
1 -60 -50 0
1 60 56 0
1 -60 -33 0
1 60 -88 0
1 60 -89 0
1 -60 53 0
1 -59 -56 0
1 59 60 0
1 -59 55 0
1 59 53 0
1 -73 -90 0
1 -73 91 0
1 -73 89 0
1 73 61 0
1 73 72 0
1 -72 92 0
1 72 -93 0
1 -72 -90 0
1 72 -88 0
1 -72 -62 0
1 -72 61 0
1 72 -68 0
1 -93 -59 0
1 93 -94 0
1 -93 -89 0
1 93 -81 0
1 -93 -70 0
1 -89 -59 0
1 89 -93 0
1 89 -66 0
1 89 -70 0
1 -89 -72 0
1 92 60 0
1 -92 88 0
1 88 -73 0
1 -88 -60 0
1 -66 -90 0
1 66 56 0
1 -66 89 0
1 -66 58 0
1 66 -63 0
1 66 -70 0
1 -70 90 0
1 70 -91 0
1 -70 56 0
1 70 57 0
1 -70 -66 0
1 70 89 0
1 70 -61 0
1 70 -58 0
1 94 -91 0
1 94 71 0
1 -94 74 0
1 94 -69 0
1 81 -91 0
1 81 94 0
1 81 -71 0
1 81 74 0
1 81 61 0
1 -81 -69 0
1 91 -77 0
1 -91 -94 0
1 91 -66 0
1 -91 -87 0
1 61 -95 0
1 61 -94 0
1 -61 73 0
1 61 87 0
1 -61 -53 0
1 -61 78 0
1 -61 -72 0
1 -90 54 0
1 90 -94 0
1 -90 73 0
1 -90 81 0
1 -90 -70 0
1 90 -72 0
1 62 -90 0
1 62 -73 0
1 62 -70 0
1 77 96 0
1 77 69 0
1 -78 17 0
1 -78 -77 0
1 78 -71 0
1 -78 69 0
1 -78 -64 0
1 -95 82 0
1 95 67 0
1 -95 -87 0
1 87 -95 0
1 -87 83 0
1 87 61 0
1 67 95 0
1 -67 -87 0
1 -67 81 0
1 -67 -69 0
1 -69 -77 0
1 69 -94 0
1 -69 67 0
1 -69 -87 0
1 69 78 0
1 -71 96 0
1 -71 -77 0
1 -71 -56 0
1 96 -77 0
1 -96 94 0
1 -96 -71 0
1 96 -78 0
